# Objective value = 28
WA1n 0
WA1p 0
WA2n 1
WA2p 0
WB1n 0
WB1p 0
WB2n 1
WB2p 0
WC1n 0
WC1p 0
WC2n 1
WC2p 0
WD1n 0
WD1p 0
WD2n 0
WD2p 1
WE1n 2
WE1p 0
WF1n 2
WF1p 0
WF2n 1
WF2p 0
WG1n 2
WG1p 0
WG2n 1
WG2p 0
WH1n 0
WH1p 7
WT1n 1
WT1p 0
WT2n 1
WT2p 0
5 7
a 0
b 0
c 0
d 0
e 0
f 0
g 0
h 1
i 0
j 0
k 0
l 0
m 0
n 1
o 0
p 0
